(set-info :smt-lib-version 2.6)
(set-logic QF_BV)
(set-info :source |
 Patrice Godefroid, SAGE (systematic dynamic test generation)
 For more information: http://research.microsoft.com/en-us/um/people/pg/public_psfiles/ndss2008.pdf
|)
(set-info :category "industrial")
(set-info :status unsat)
(declare-fun T1_1144 () (_ BitVec 8))
(declare-fun T1_888 () (_ BitVec 8))
(declare-fun T1_632 () (_ BitVec 8))
(declare-fun T1_376 () (_ BitVec 8))
(declare-fun T1_120 () (_ BitVec 8))
(declare-fun T1_1400 () (_ BitVec 8))
(declare-fun T1_1656 () (_ BitVec 8))
(declare-fun T1_1912 () (_ BitVec 8))
(declare-fun T1_2168 () (_ BitVec 8))
(declare-fun T1_2424 () (_ BitVec 8))
(declare-fun T1_2680 () (_ BitVec 8))
(declare-fun T1_2936 () (_ BitVec 8))
(assert (let ((?v_1 ((_ zero_extend 24) T1_1144)) (?v_18 ((_ zero_extend 24) T1_888)) (?v_14 ((_ zero_extend 24) T1_632)) (?v_10 ((_ zero_extend 24) T1_376)) (?v_7 ((_ zero_extend 24) T1_120))) (let ((?v_12 (bvadd ?v_7 (_ bv122 32)))) (let ((?v_11 (bvadd ?v_12 ?v_10))) (let ((?v_16 (bvadd ?v_11 (_ bv1 32)))) (let ((?v_15 (bvadd ?v_16 ?v_14))) (let ((?v_20 (bvadd ?v_15 (_ bv1 32)))) (let ((?v_19 (bvadd ?v_20 ?v_18))) (let ((?v_0 (bvadd ?v_19 (_ bv1 32)))) (let ((?v_21 (bvadd ?v_0 ?v_1))) (let ((?v_17 (bvadd (bvadd ?v_21 (_ bv1 32)) ((_ zero_extend 24) T1_1400)))) (let ((?v_13 (bvadd (bvadd ?v_17 (_ bv1 32)) ((_ zero_extend 24) T1_1656)))) (let ((?v_9 (bvadd (bvadd ?v_13 (_ bv1 32)) ((_ zero_extend 24) T1_1912))) (?v_8 (bvadd ?v_7 (_ bv121 32)))) (let ((?v_6 (bvadd (bvadd ?v_9 (_ bv1 32)) ((_ zero_extend 24) T1_2168)))) (let ((?v_5 (bvadd (bvadd ?v_6 (_ bv1 32)) ((_ zero_extend 24) T1_2424)))) (let ((?v_4 (bvadd (bvadd ?v_5 (_ bv1 32)) ((_ zero_extend 24) T1_2680)))) (let ((?v_3 (bvadd (bvadd ?v_4 (_ bv1 32)) ((_ zero_extend 24) T1_2936)))) (let ((?v_2 (bvsub (_ bv2957 32) (bvadd ?v_3 (_ bv1 32))))) (and true (bvule (bvsub (_ bv2957 32) ?v_0) ?v_1) (= ?v_2 (_ bv1 32)) (bvule ?v_2 (_ bv1 32)) (bvult (_ bv1 32) (bvsub (_ bv2957 32) ?v_3)) (not (= T1_2936 (_ bv0 8))) (bvule ?v_3 (_ bv2957 32)) (bvule (_ bv0 32) ?v_3) (bvult (_ bv1 32) (bvsub (_ bv2957 32) ?v_4)) (not (= T1_2680 (_ bv0 8))) (bvule ?v_4 (_ bv2957 32)) (bvule (_ bv0 32) ?v_4) (bvult (_ bv1 32) (bvsub (_ bv2957 32) ?v_5)) (not (= T1_2424 (_ bv0 8))) (bvule ?v_5 (_ bv2957 32)) (bvule (_ bv0 32) ?v_5) (bvult (_ bv1 32) (bvsub (_ bv2957 32) ?v_6)) (bvult (_ bv1 32) (bvsub (_ bv2957 32) ?v_8)) (not (= T1_2168 (_ bv0 8))) (bvule ?v_6 (_ bv2957 32)) (bvule (_ bv0 32) ?v_6) (bvsle (bvsub ?v_7 (_ bv255 32)) (_ bv0 32)) (bvslt (_ bv0 32) (bvsub ?v_7 (_ bv254 32))) (bvule ?v_8 (_ bv2957 32)) (bvule (_ bv0 32) ?v_8) (bvult (_ bv1 32) (bvsub (_ bv2957 32) ?v_9)) (bvsle (bvsub ?v_10 (_ bv255 32)) (_ bv0 32)) (bvslt (_ bv0 32) (bvsub ?v_10 (_ bv254 32))) (bvslt (_ bv0 32) ?v_7) (not (= ?v_7 (_ bv0 32))) (bvult ?v_7 (_ bv2836 32)) (bvsle (_ bv0 32) ?v_7) (bvult (_ bv0 8) T1_120) (not (= T1_120 (_ bv0 8))) (not (= T1_1912 (_ bv0 8))) (bvule ?v_9 (_ bv2957 32)) (bvule (_ bv0 32) ?v_9) (bvult (_ bv1 32) (bvsub (_ bv2957 32) ?v_11)) (bvslt (_ bv0 32) ?v_10) (not (= ?v_10 (_ bv0 32))) (bvult ?v_10 (bvsub (_ bv2957 32) ?v_12)) (bvsle (_ bv0 32) ?v_10) (bvult (_ bv0 8) T1_376) (not (= T1_376 (_ bv0 8))) (bvult (_ bv1 32) (bvsub (_ bv2957 32) ?v_13)) (bvsle (bvsub ?v_14 (_ bv255 32)) (_ bv0 32)) (bvslt (_ bv0 32) (bvsub ?v_14 (_ bv254 32))) (bvule ?v_11 (_ bv2957 32)) (bvule (_ bv0 32) ?v_11) (not (= T1_1656 (_ bv0 8))) (bvule ?v_13 (_ bv2957 32)) (bvule (_ bv0 32) ?v_13) (bvult (_ bv1 32) (bvsub (_ bv2957 32) ?v_15)) (bvslt (_ bv0 32) ?v_14) (not (= ?v_14 (_ bv0 32))) (bvult ?v_14 (bvsub (_ bv2957 32) ?v_16)) (bvsle (_ bv0 32) ?v_14) (bvult (_ bv0 8) T1_632) (not (= T1_632 (_ bv0 8))) (bvult (_ bv1 32) (bvsub (_ bv2957 32) ?v_17)) (bvsle (bvsub ?v_18 (_ bv255 32)) (_ bv0 32)) (bvslt (_ bv0 32) (bvsub ?v_18 (_ bv254 32))) (bvule ?v_15 (_ bv2957 32)) (bvule (_ bv0 32) ?v_15) (not (= T1_1400 (_ bv0 8))) (bvule ?v_17 (_ bv2957 32)) (bvule (_ bv0 32) ?v_17) (bvult (_ bv1 32) (bvsub (_ bv2957 32) ?v_19)) (bvslt (_ bv0 32) ?v_18) (not (= ?v_18 (_ bv0 32))) (bvult ?v_18 (bvsub (_ bv2957 32) ?v_20)) (bvsle (_ bv0 32) ?v_18) (bvult (_ bv0 8) T1_888) (not (= T1_888 (_ bv0 8))) (bvult (_ bv1 32) (bvsub (_ bv2957 32) ?v_21)) (bvule ?v_19 (_ bv2957 32)) (bvule (_ bv0 32) ?v_19) (bvule ?v_21 (_ bv2957 32)) (bvule (_ bv0 32) ?v_21) (bvsle (_ bv0 32) ?v_1) (bvult (_ bv0 8) T1_1144) (not (= T1_1144 (_ bv0 8))))))))))))))))))))))
(check-sat)
(exit)
